mixintcount/benchmarks/random_v2l/6_6_100.in
24 8
#	x1	x2	x3	x4	x5	x6;		0 = Real; 1 = Integer
	1	1	1	1	1	1
1	3	4	9	7	-1	10	44
1	2	-8	7	-7	4	4	61
1	-3	-1	-3	3	4	8	89
1	1	-4	-9	3	8	8	70
1	-6	5	-7	8	-4	-9	34
1	6	9	1	-5	-10	-5	-70
1	3	8	2	10	-4	7	98
1	9	4	-7	-3	8	-6	81
1	6	10	1	8	4	2	65
1	9	4	-6	2	0	6	-7
1	-1	9	-7	-9	6	3	94
1	-10	-1	0	9	-8	3	71
1	1	0	0	0	0	0	100
1	-1	0	0	0	0	0	100
1	0	1	0	0	0	0	100
1	0	-1	0	0	0	0	100
1	0	0	1	0	0	0	100
1	0	0	-1	0	0	0	100
1	0	0	0	1	0	0	100
1	0	0	0	-1	0	0	100
1	0	0	0	0	1	0	100
1	0	0	0	0	-1	0	100
1	0	0	0	0	0	1	100
1	0	0	0	0	0	-1	100
